Solver command line: ['C:\\Program Files\\IBM\\ILOG\\CPLEX_Studio2211\\cplex\\bin\\x64_win64\\cplex.exe']


Welcome to IBM(R) ILOG(R) CPLEX(R) Interactive Optimizer 22.1.1.0
  with Simplex, Mixed Integer & Barrier Optimizers
5725-A06 5725-A29 5724-Y48 5724-Y49 5724-Y54 5724-Y55 5655-Y21
Copyright IBM Corp. 1988, 2022.  All Rights Reserved.

Type 'help' for a list of available commands.
Type 'help' followed by a command name for more
information on commands.

CPLEX> Logfile 'cplex.log' closed.
Logfile 'C:\Users\wangy\Documents\GitHub\re_optimization\result_site_specific\tmpyk_scguz.cplex.log' open.
CPLEX> Problem 'C:\Users\wangy\Documents\GitHub\re_optimization\result_site_specific\tmppsyz9yin.pyomo.lp' read.
Read time = 0.24 sec. (7.98 ticks)
CPLEX> Problem name         : C:\Users\wangy\Documents\GitHub\re_optimization\result_site_specific\tmppsyz9yin.pyomo.lp
Objective sense      : Minimize
Variables            :   56997  [Nneg: 30685,  Free: 4406,  Binary: 6,
                                 Other: 21900]
Objective nonzeros   :      14
Linear constraints   :   78893  [Less: 42355,  Greater: 5,  Equal: 36533]
  Nonzeros           :  198601
  RHS nonzeros       :    3825

Variables            : Min LB: 0.000000         Max UB: 1.000000       
Objective nonzeros   : Min   : 1.000000         Max   : 1.000000       
Linear constraints   :
  Nonzeros           : Min   : 0.02057270       Max   : 100000.0       
  RHS nonzeros       : Min   : 0.08300000       Max   : 100000.0       
CPLEX> Version identifier: 22.1.1.0 | 2022-11-27 | 9160aff4d
Tried aggregator 3 times.
MIP Presolve eliminated 46550 rows and 26108 columns.
Aggregator did 10163 substitutions.
Reduced MIP has 22180 rows, 20726 columns, and 66328 nonzeros.
Reduced MIP has 2 binaries, 0 generals, 0 SOSs, and 0 indicators.
Presolve time = 0.17 sec. (204.10 ticks)
Found incumbent of value 228233.715362 after 0.26 sec. (317.77 ticks)
Probing time = 0.00 sec. (1.15 ticks)
Tried aggregator 1 time.
Detecting symmetries...
Reduced MIP has 22180 rows, 20726 columns, and 66328 nonzeros.
Reduced MIP has 2 binaries, 0 generals, 0 SOSs, and 0 indicators.
Presolve time = 0.05 sec. (43.20 ticks)
Probing time = 0.00 sec. (1.08 ticks)
MIP emphasis: balance optimality and feasibility.
MIP search method: dynamic search.
Parallel mode: deterministic, using up to 16 threads.
Root relaxation solution time = 0.89 sec. (699.58 ticks)

        Nodes                                         Cuts/
   Node  Left     Objective  IInf  Best Integer    Best Bound    ItCnt     Gap

*     0+    0                       228233.7154    -1725.9472           100.76%
      0     0     2107.9304     1   228233.7154     2107.9304       57   99.08%
*     0+    0                         2196.6462     2107.9304             4.04%
      0     0        cutoff           2196.6462                    338    0.00%
Elapsed time = 1.47 sec. (1407.57 ticks, tree = 0.01 MB, solutions = 2)

Root node processing (before b&c):
  Real time             =    1.47 sec. (1409.97 ticks)
Parallel b&c, 16 threads:
  Real time             =    0.00 sec. (0.00 ticks)
  Sync time (average)   =    0.00 sec.
  Wait time (average)   =    0.00 sec.
                          ------------
Total (root+branch&cut) =    1.47 sec. (1409.97 ticks)

Solution pool: 2 solutions saved.

MIP - Integer optimal solution:  Objective =  2.1966462111e+03
Solution time =    1.47 sec.  Iterations = 338  Nodes = 0
Deterministic time = 1410.13 ticks  (960.58 ticks/sec)

CPLEX> Incumbent solution written to file 'C:\Users\wangy\Documents\GitHub\re_optimization\result_site_specific\tmpx1awg_rs.cplex.sol'.
CPLEX> 
